Problem:    
Rows:       196
Columns:    120
Non-zeros:  568
Status:     OPTIMAL
Objective:  obj = 337750 (MAXimum)

   No.   Row name   St   Activity     Lower bound   Upper bound    Marginal
------ ------------ -- ------------- ------------- ------------- -------------
     1 r.4          NU           165                         165       108.485 
     2 r.5          B             55                         165 
     3 r.6          NU           165                         165       108.485 
     4 r.7          B            165                         165 
     5 r.8          NU           165                         165         < eps
     6 r.9          NU           165                         165         < eps
     7 r.10         B            165                         165 
     8 r.11         B            110                         165 
     9 r.12         B              0                         165 
    10 r.13         B            110                         165 
    11 r.14         NU           165                         165       108.485 
    12 r.15         NU           165                         165       108.485 
    13 r.16         B            165                         165 
    14 r.17         NU           165                         165       108.485 
    15 r.18         B             55                         165 
    16 r.19         B            165                         165 
    17 r.20         NU           165                         165       108.485 
    18 r.21         NU           165                         165       108.485 
    19 r.22         B             55                         165 
    20 r.23         B            165                         165 
    21 r.24         B             55                         165 
    22 r.25         B            165                         165 
    23 r.26         B             55                         165 
    24 r.27         NU           165                         165       108.485 
    25 r.28         B            165                         165 
    26 r.29         B             55                         165 
    27 r.30         B             55                         165 
    28 r.31         B            165                         165 
    29 r.32         B              0                         165 
    30 r.33         NU           165                         165       108.485 
    31 r.34         B             55                         165 
    32 r.35         B            165                         165 
    33 r.36         NU           165                         165       108.485 
    34 r.37         B            165                         165 
    35 r.38         B            165                         165 
    36 r.39         B            165                         165 
    37 r.40         NU           850                         850       151.667 
    38 r.41         NS             0             0             =       41.5152 
    39 r.42         NS             0             0             =       91.5152 
    40 r.43         NS             0             0             =       108.485 
    41 r.44         NS             0             0             =           150 
    42 r.45         NS             0             0             =           200 
    43 r.46         NS             0             0             =         < eps
    44 r.47         NS             0             0             =       41.5152 
    45 r.48         NS             0             0             =       91.5152 
    46 r.49         NS             0             0             =       108.485 
    47 r.50         NS             0             0             =       41.5152 
    48 r.51         NS             0             0             =       91.5152 
    49 r.52         NS             0             0             =       108.485 
    50 r.53         NS             0             0             =       41.5152 
    51 r.54         NS             0             0             =       91.5152 
    52 r.55         NS             0             0             =       108.485 
    53 r.56         NS             0             0             =       41.5152 
    54 r.57         NS             0             0             =       91.5152 
    55 r.58         NS             0             0             =       108.485 
    56 r.59         NS             0             0             =           150 
    57 r.60         NS             0             0             =           200 
    58 r.61         NS             0             0             =         < eps
    59 r.62         NS             0             0             =       41.5152 
    60 r.63         NS             0             0             =       91.5152 
    61 r.64         NS             0             0             =       108.485 
    62 r.65         B            -35                           0 
    63 r.66         B           -2.5                           0 
    64 r.67         NU             0                           0          1000 
    65 r.68         B             90             0               
    66 r.69         B             75             0               
    67 r.70         B              0             0               
    68 r.71         B              0             0               
    69 r.72         B              0             0               
    70 r.73         B              0             0               
    71 r.74         B            165             0               
    72 r.75         B              0             0               
    73 r.76         B              0             0               
    74 r.77         B              1             0               
    75 r.78         NU             1                           1         < eps
    76 r.79         B              0             0               
    77 r.80         B              0             0               
    78 r.81         B              0             0               
    79 r.82         B              0             0               
    80 r.83         B              0             0               
    81 r.84         B              0             0               
    82 r.85         B              0             0               
    83 r.86         B            7.5             0               
    84 r.87         B              0             0               
    85 r.88         B              0             0               
    86 r.89         B              0                           1 
    87 r.90         B             90             0               
    88 r.91         B             75             0               
    89 r.92         B              0             0               
    90 r.93         B            110             0               
    91 r.94         B              0             0               
    92 r.95         B              0             0               
    93 r.96         B              0             0               
    94 r.97         B              0             0               
    95 r.98         B              0             0               
    96 r.99         B              1             0               
    97 r.100        NU             1                           1       29833.3 
    98 r.101        B              0             0               
    99 r.102        B              0             0               
   100 r.103        B              0             0               
   101 r.104        B              0             0               
   102 r.105        B              0             0               
   103 r.106        B              0             0               
   104 r.107        B              0             0               
   105 r.108        B              0             0               
   106 r.109        B              0             0               
   107 r.110        B              0             0               
   108 r.111        B              0                           1 
   109 r.112        B             90             0               
   110 r.113        B             75             0               
   111 r.114        B              0             0               
   112 r.115        B            165             0               
   113 r.116        B              0             0               
   114 r.117        B              0             0               
   115 r.118        B              0             0               
   116 r.119        B              0             0               
   117 r.120        B              0             0               
   118 r.121        B              1             0               
   119 r.122        NU             1                           1         < eps
   120 r.123        B              0             0               
   121 r.124        B              0             0               
   122 r.125        B              0             0               
   123 r.126        B              0             0               
   124 r.127        B              0             0               
   125 r.128        B              0             0               
   126 r.129        B              0             0               
   127 r.130        B              0             0               
   128 r.131        B              0             0               
   129 r.132        B              0             0               
   130 r.133        B              0                           1 
   131 r.134        B             55             0               
   132 r.135        B              0             0               
   133 r.136        B              0             0               
   134 r.137        B             90             0               
   135 r.138        B             75             0               
   136 r.139        B              0             0               
   137 r.140        B             55             0               
   138 r.141        B              0             0               
   139 r.142        B              0             0               
   140 r.143        B              1             0               
   141 r.144        B              1                           1 
   142 r.145        B             90             0               
   143 r.146        B             75             0               
   144 r.147        B              0             0               
   145 r.148        B              0             0               
   146 r.149        B              0             0               
   147 r.150        B              0             0               
   148 r.151        B            165             0               
   149 r.152        B              0             0               
   150 r.153        B              0             0               
   151 r.154        B              1             0               
   152 r.155        NU             1                           1         < eps
   153 r.156        B             90             0               
   154 r.157        B             75             0               
   155 r.158        B              0             0               
   156 r.159        B             55             0               
   157 r.160        B              0             0               
   158 r.161        B              0             0               
   159 r.162        B             55             0               
   160 r.163        B              0             0               
   161 r.164        B              0             0               
   162 r.165        B              1             0               
   163 r.166        B              1                           1 
   164 r.167        B          127.5             0               
   165 r.168        B              0             0               
   166 r.169        B             30             0               
   167 r.170        B              0             0               
   168 r.171        B              0             0               
   169 r.172        B              0             0               
   170 r.173        B              0             0               
   171 r.174        B              0             0               
   172 r.175        B              0             0               
   173 r.176        B            0.5             0               
   174 r.177        B            0.5                           1 
   175 r.178        B              0             0               
   176 r.179        B              0             0               
   177 r.180        B              0             0               
   178 r.181        B          162.5             0               
   179 r.182        B            2.5             0               
   180 r.183        B              0             0               
   181 r.184        B           92.5             0               
   182 r.185        B           72.5             0               
   183 r.186        B              0             0               
   184 r.187        B              1             0               
   185 r.188        NU             1                           1         < eps
   186 r.189        B              0             0               
   187 r.190        B              0             0               
   188 r.191        B              0             0               
   189 r.192        B              0             0               
   190 r.193        B              0             0               
   191 r.194        B              0             0               
   192 r.195        B              0             0               
   193 r.196        B              0             0               
   194 r.197        B              0             0               
   195 r.198        B              0             0               
   196 r.199        B              0                           1 

   No. Column name  St   Activity     Lower bound   Upper bound    Marginal
------ ------------ -- ------------- ------------- ------------- -------------
     1 g_1_2        B             90             0               
     2 g_2_1        NL             0             0                     -216.97 
     3 d_1_2        B             75             0               
     4 d_2_1        NL             0             0                     -216.97 
     5 j_1_2        NL             0             0                     -216.97 
     6 g_3_2        B             90             0               
     7 g_2_3        NL             0             0                       < eps
     8 d_3_2        B             75             0               
     9 d_2_3        NL             0             0                       < eps
    10 j_3_2        NL             0             0                       < eps
    11 g_10_2       B          127.5             0               
    12 g_2_10       NL             0             0                       < eps
    13 d_10_2       NL             0             0                       < eps
    14 d_2_10       B            7.5             0               
    15 j_10_2       B             30             0               
    16 g_3_4        B            110             0               
    17 g_4_3        NL             0             0                       < eps
    18 d_3_4        NL             0             0                       < eps
    19 d_4_3        NL             0             0                       < eps
    20 j_3_4        NL             0             0                       < eps
    21 g_5_4        B             90             0               
    22 g_4_5        NL             0             0                     -216.97 
    23 d_5_4        B             75             0               
    24 d_4_5        NL             0             0                     -216.97 
    25 j_5_4        NL             0             0                     -216.97 
    26 g_9_4        B             90             0               
    27 g_4_9        NL             0             0                     -216.97 
    28 d_9_4        B             75             0               
    29 d_4_9        NL             0             0                     -216.97 
    30 j_9_4        NL             0             0                     -216.97 
    31 g_5_6        B            165             0               
    32 g_6_5        NL             0             0                     -216.97 
    33 d_5_6        NL             0             0                       < eps
    34 d_6_5        NL             0             0                     -216.97 
    35 j_5_6        NL             0             0                     -216.97 
    36 g_7_6        B             90             0               
    37 g_6_7        NL             0             0                     -216.97 
    38 d_7_6        B             75             0               
    39 d_6_7        NL             0             0                     -216.97 
    40 j_7_6        NL             0             0                     -216.97 
    41 g_8_6        B             90             0               
    42 g_6_8        NL             0             0                     -216.97 
    43 d_8_6        B             75             0               
    44 d_6_8        NL             0             0                     -216.97 
    45 j_8_6        NL             0             0                     -216.97 
    46 g_1_12       B            165             0               
    47 g_12_1       NL             0             0                     -216.97 
    48 d_1_12       NL             0             0                       < eps
    49 d_12_1       NL             0             0                     -216.97 
    50 j_1_12       NL             0             0                     -216.97 
    51 g_8_12       B            165             0               
    52 g_12_8       NL             0             0                     -216.97 
    53 d_8_12       NL             0             0                       < eps
    54 d_12_8       NL             0             0                     -216.97 
    55 j_8_12       NL             0             0                     -216.97 
    56 g_11_12      B           92.5             0               
    57 g_12_11      NL             0             0                     -216.97 
    58 d_11_12      B           72.5             0               
    59 d_12_11      NL             0             0                     -216.97 
    60 j_11_12      NL             0             0                     -216.97 
    61 j_2_1        NL             0             0                       < eps
    62 g_1_7        NL             0             0                       < eps
    63 g_7_1        B             55             0               
    64 d_1_7        NL             0             0                       < eps
    65 d_7_1        NL             0             0                       < eps
    66 j_1_7        B              0             0               
    67 j_7_1        NL             0             0                       < eps
    68 j_12_1       B              0             0               
    69 j_2_3        NL             0             0                       < eps
    70 j_2_10       B              0             0               
    71 j_4_3        B              0             0               
    72 g_3_10       NL             0             0                       < eps
    73 g_10_3       NL             0             0                       < eps
    74 d_3_10       NL             0             0                       < eps
    75 d_10_3       NL             0             0                       < eps
    76 j_3_10       NL             0             0                       < eps
    77 j_10_3       NL             0             0                       < eps
    78 j_4_5        NL             0             0                       < eps
    79 j_4_9        NL             0             0                       < eps
    80 j_6_5        B              0             0               
    81 g_5_9        NL             0             0                       < eps
    82 g_9_5        B             55             0               
    83 d_5_9        NL             0             0                       < eps
    84 d_9_5        NL             0             0                       < eps
    85 j_5_9        B              0             0               
    86 j_9_5        NL             0             0                       < eps
    87 j_6_7        NL             0             0                       < eps
    88 j_6_8        NL             0             0                       < eps
    89 g_7_8        B             55             0               
    90 g_8_7        NL             0             0                       < eps
    91 d_7_8        NL             0             0                       < eps
    92 d_8_7        NL             0             0                       < eps
    93 j_7_8        NL             0             0                       < eps
    94 j_8_7        NL             0             0                       < eps
    95 j_12_8       B              0             0               
    96 g_9_11       B             55             0               
    97 g_11_9       NL             0             0                       < eps
    98 d_9_11       NL             0             0                       < eps
    99 d_11_9       NL             0             0                       < eps
   100 j_9_11       NL             0             0                       < eps
   101 j_11_9       NL             0             0                       < eps
   102 g_10_11      NL             0             0                     -216.97 
   103 g_11_10      B          162.5             0               
   104 d_10_11      NL             0             0                     -216.97 
   105 d_11_10      B            2.5             0               
   106 j_10_11      B              0             0               
   107 j_11_10      NL             0             0                     -216.97 
   108 j_12_11      NL             0             0                       < eps
   109 f1           B              1             0               
   110 f2           NL             0             0                       < eps
   111 f3           B              1             0               
   112 f4           NL             0             0                       < eps
   113 f5           B              1             0               
   114 f6           NL             0             0                       < eps
   115 f7           B              1             0               
   116 f8           B              1             0               
   117 f9           B              1             0               
   118 f10          B            0.5             0               
   119 f11          B              1             0               
   120 f12          NL             0             0                       < eps

Karush-Kuhn-Tucker optimality conditions:

KKT.PE: max.abs.err = 1.71e-13 on row 41
        max.rel.err = 4.25e-16 on row 41
        High quality

KKT.PB: max.abs.err = 2.84e-14 on row 4
        max.rel.err = 1.71e-16 on row 4
        High quality

KKT.DE: max.abs.err = 1.46e-11 on column 118
        max.rel.err = 5.64e-14 on column 70
        High quality

KKT.DB: max.abs.err = 1.71e-13 on column 75
        max.rel.err = 1.71e-13 on column 75
        High quality

End of output
